0 1 348.0
0 2 602.0
0 3 128.0
0 4 167.0
0 5 143.0
0 6 203.0
0 7 283.0
0 8 231.0
0 9 58.0
1 2 357.0
1 3 360.0
1 4 181.0
1 5 375.0
1 6 217.0
1 7 486.0
1 8 434.0
1 9 290.0
2 3 593.0
2 4 435.0
2 5 608.0
2 6 471.0
2 7 559.0
2 8 556.0
2 9 544.0
3 4 179.0
3 5 15.0
3 6 215.0
3 7 155.0
3 8 103.0
3 9 70.0
4 5 194.0
4 6 36.0
4 7 334.0
4 8 282.0
4 9 109.0
5 6 230.0
5 7 170.0
5 8 118.0
5 9 85.0
6 7 370.0
6 8 318.0
6 9 145.0
7 8 52.0
7 9 225.0
8 9 173.0
